Route #1: 53 58 32 29 18 12 45 61 49 17 2
Route #2: 24 42 46 11 43 44 27 33
Route #3: 36 30 3 7 60 54 50 31 4 39 38
Route #4: 1 15 8 56 34 16
Route #5: 40 10 28 59 26 19 37 21 22 57 35
Route #6: 14 13 51 23 5
Route #7: 20 25 41 9 47 55 6
Route #8: 52 48
Route #9: 
cost 1475.8385284516257
